c User generated cnf file
p cnf 14 33
3 -1 8 0 
5 4 -8 0 
4 9 -3 0 
9 6 -7 0 
14 9 -14 0 
-5 13 8 0 
4 8 -4 0 
14 12 -5 0 
2 -6 10 0 
9 4 -8 0 
7 -14 12 0 
12 14 -5 0 
-4 13 13 0 
12 6 -11 0 
8 3 -8 0 
14 12 -13 0 
3 5 -12 0 
3 -14 12 0 
5 -12 9 0 
-11 11 6 0 
4 -5 1 0 
5 2 -5 0 
6 10 -4 0 
3 -3 6 0 
-11 2 1 0 
7 1 -7 0 
6 8 -13 0 
3 -12 10 0 
10 -5 5 0 
5 -8 3 0 
14 -12 8 0 
-9 2 12 0 
-3 10 14 0 
